p cnf 26 15
-1 24 0 
-2 19 -3 5 -4 12 24 0 
-5 3 -6 25 0 
-2 19 -7 -8 24 0 
-9 25 0 
-7 -10 11 17 22 24 0 
-11 10 17 22 24 0 
-11 10 17 22 25 0 
-12 4 -7 -13 15 -14 -5 3 25 0 
-12 4 -15 13 -5 3 26 -7 0 
-13 15 -12 4 25 0 
-13 15 -16 -12 4 25 0 
-17 10 11 22 -18 24 0 
-19 2 -20 -21 25 0 
-13 15 -22 10 11 17 -23 25 0 
